data/MCDM/NO_CORR/GEN_FROM_60/12_ITEMS_1000_GEN/K5012W02.KNP.mps
NAME          BLANK   
ROWS
 N  OBJROW
 L  R0000000
COLUMNS
    C0000000  OBJROW     -16.          R0000000  135.        
    C0000001  OBJROW     -594.         R0000000  276.        
    C0000002  OBJROW     -587.         R0000000  328.        
    C0000003  OBJROW     -733.         R0000000  395.        
    C0000004  OBJROW     -290.         R0000000  328.        
    C0000005  OBJROW     -1.           R0000000  434.        
    C0000006  OBJROW     -317.         R0000000  538.        
    C0000007  OBJROW     -923.         R0000000  298.        
    C0000008  OBJROW     -727.         R0000000  631.        
    C0000009  OBJROW     -212.         R0000000  276.        
    C0000010  OBJROW     -63.          R0000000  217.        
    C0000011  OBJROW     -936.         R0000000  824.        
RHS
    RHS       R0000000  14144.      
BOUNDS
 BV BOUND     C0000000  1.          
 BV BOUND     C0000001  1.          
 BV BOUND     C0000002  1.          
 BV BOUND     C0000003  1.          
 BV BOUND     C0000004  1.          
 BV BOUND     C0000005  1.          
 BV BOUND     C0000006  1.          
 BV BOUND     C0000007  1.          
 BV BOUND     C0000008  1.          
 BV BOUND     C0000009  1.          
 BV BOUND     C0000010  1.          
 BV BOUND     C0000011  1.          
ENDATA
