data/MCDM/NO_CORR/GEN_FROM_60/12_ITEMS_1000_GEN/K5012W02.KNP.txt
N 12
M 13
LC 12
LC 13
LC 14
LC 15
LC 16
LC 17
LC 18
LC 19
LC 20
LC 21
LC 22
LC 23
LR 1
LR 2
LR 3
LR 4
LR 5
LR 6
LR 7
LR 8
LR 9
LR 10
LR 11
LR 12
LR 13
LO -16
LO -594
LO -587
LO -733
LO -290
LO -1
LO -317
LO -923
LO -727
LO -212
LO -63
LO -936
OS 1
IC 553
IC 552
IC 830
IC 995
IC 719
IC 148
IC 625
IC 945
IC 98
IC 623
IC 962
IC 617
IB 3834
